; benchmark generated from python API
(set-info :status unknown)
(declare-fun A_3 () Real)
(declare-fun S_0 () Real)
(declare-fun L_2 () Real)
(declare-fun C () Real)
(declare-fun S_2 () Real)
(declare-fun L_0 () Real)
(declare-fun A_0 () Real)
(declare-fun S_1 () Real)
(declare-fun A_2 () Real)
(declare-fun A_1 () Real)
(declare-fun L_1 () Real)
(declare-fun L0 () Real)
(declare-fun S_3 () Real)
(declare-fun A_4 () Real)
(declare-fun L_4 () Real)
(declare-fun S_4 () Real)
(assert
 (let (($x7923 (<= (+ (* (- 4.0) C) (* (- 1.0) L_2) (* (- 1.0) S_0) A_3) 0.0)))
 (let (($x37 (>= L0 0.0)))
 (let (($x573 (>= C 5.0)))
 (let (($x7873 (<= (+ (* (- 1.0) A_1) (* (- 1.0) L_2) A_3 L_0 (* (- 2.0) C)) 0.0)))
 (let (($x7222 (<= (+ C S_0 (* (- 1.0) S_2)) 0.0)))
 (let (($x64 (= L_2 L_1)))
 (let (($x10479 (or $x64 (<= (+ (* 2.0 C) L_2 (* (- 1.0) A_2) S_0) (- 5.0)) (<= (+ (* (- 1.0) L_0) C A_1 L_2 (* (- 1.0) A_2)) (- 5.0)))))
 (let (($x1387 (not (<= (+ (* (- 1.0) L_1) A_3 (* (- 1.0) S_3)) 0.0))))
 (let (($x54 (= L_1 L_0)))
 (let (($x10644 (or $x54 $x1387 (<= (+ (* (- 2.0) C) (* (- 1.0) A_1) A_3) (- 5.0)))))
 (let (($x10741 (or $x54 (<= (+ L_1 (* (- 1.0) A_1) (* (- 1.0) C) S_2) (- 5.0)))))
 (let ((?x303 (* (- 1.0) L_1)))
 (let ((?x570 (* 2.0 C)))
 (let ((?x270 (* (- 1.0) L_2)))
 (let ((?x477 (* (- 1.0) A_4)))
 (let (($x10884 (or $x54 $x1387 (<= (+ A_2 (* (- 1.0) C) (* (- 1.0) A_1)) 0.0))))
 (let (($x432 (= L_4 L_2)))
 (let (($x10986 (or $x64 (<= S_2 (+ L_4 ?x477 A_3 (* (- 2.0) L_2) C A_2)))))
 (let ((?x3555 (* (- 2.0) L_2)))
 (let ((?x3776 (+ L_4 ?x477 A_3 ?x3555 A_2)))
 (let (($x3792 (<= (+ A_1 (* (- 1.0) L_0)) ?x3776)))
 (let (($x10995 (or $x64 $x3792 (not (<= 0.0 (+ C (* (- 1.0) A_1) S_0 L_1))))))
 (let (($x10451 (or $x64 (<= S_0 (+ L_4 ?x477 A_3 ?x3555 (* (- 1.0) C) A_2)) (not (<= (+ C (* (- 1.0) A_1) S_0 L_1) 0.0)))))
 (let ((?x565 (* (- 1.0) L_0)))
 (let ((?x894 (+ A_0 ?x565)))
 (let ((?x262 (* (- 1.0) C)))
 (let ((?x7397 (+ L_4 ?x477 A_3 ?x3555 ?x262 A_2)))
 (let ((?x226 (* (- 1.0) L_4)))
 (let ((?x485 (* (- 1.0) A_2)))
 (let ((?x481 (* (- 1.0) A_3)))
 (let ((?x3394 (* 2.0 L_2)))
 (let (($x8270 (or $x432 (= (+ A_1 A_4 ?x3394 ?x481 ?x485 ?x226 ?x565) 0.0) (not $x3792))))
 (let (($x3668 (not (= L_2 L_4))))
 (let (($x1170 (not (= L_0 L_1))))
 (let (($x1163 (= L_2 L_0)))
 (let (($x120 (>= S_4 S_3)))
 (let (($x36 (>= L_0 L0)))
 (let (($x111 (>= S_1 S_0)))
 (let (($x114 (>= S_2 S_1)))
 (let (($x122 (>= A_1 A_0)))
 (let (($x123 (>= A_2 A_1)))
 (let (($x124 (>= A_3 A_2)))
 (and (<= (+ A_3 ?x270) S_3) $x124 $x123 $x122 $x114 $x111 $x36 $x120 (or $x54 (not (<= L_1 L_0))) (or $x432 (>= (+ ?x226 A_4 ?x481 L_2 ?x262) 5.0)) (or $x54 (<= (+ L_1 (* (- 1.0) A_1) S_1) (- 5.0))) (<= (+ ?x262 S_1 (* (- 1.0) A_0) L_0) 0.0) (<= (+ L_1 ?x485 S_2) 0.0) (or $x54 $x64 (= (+ L_1 (* (- 1.0) A_1) A_2) (+ L_2 C))) (<= (+ L_1 ?x481 S_3) 0.0) (<= S_3 (+ A_3 ?x270)) (<= (+ L_2 ?x477 S_4) 0.0) (<= S_4 (+ A_3 ?x270 C)) (or $x64 (<= (+ ?x262 ?x485 A_3) (- 5.0))) (or $x1163 $x1170 (<= (+ ?x565 C A_1 L_2 ?x485) 0.0)) (<= (+ (* (- 2.0) C) ?x270 A_3 (* (- 1.0) S_2)) 0.0) (or $x64 (<= (+ C L_2 ?x485 S_1) (- 5.0))) (or $x432 (not (<= L_4 L_2))) (or (>= S_0 (+ A_1 ?x303 L_4 ?x477 A_3 ?x270 ?x262)) $x432) (or $x54 (<= (+ C (* (- 1.0) A_1) S_0 L_1) (- 5.0))) (or $x432 (<= (+ A_1 ?x303 L_4 ?x477 A_3 ?x270) ?x894)) (or $x432 (>= S_1 (+ A_1 ?x303 L_4 ?x477 A_3 ?x270))) (<= (+ (* (- 3.0) C) ?x270 (* (- 1.0) S_1) A_3) 0.0) (<= (+ L_0 (* (- 3.0) C) ?x270 A_3 (* (- 1.0) A_0)) 0.0) (or $x64 $x3668 (<= (+ (* (- 2.0) C) A_4 ?x485) 0.0)) (or $x432 (>= S_0 (+ L_4 ?x477 A_3 ?x3555 (* (- 2.0) C) A_2))) $x8270 (or $x432 (>= S_1 ?x7397)) (or $x64 (<= S_1 ?x3776)) (or $x432 (<= ?x7397 ?x894)) (or $x432 (>= S_2 ?x3776)) (or $x64 (<= L_2 (+ L_4 ?x477 ?x570 A_2))) $x10451 $x10995 $x10986 (or $x54 (<= S_0 (+ A_1 ?x303 L_4 ?x477 A_3 ?x270))) (or $x54 (<= 0.0 (+ L_4 ?x477 (* 3.0 C) ?x303 A_1))) (or $x432 (>= S_2 (+ L_4 ?x477 A_3 ?x270 C ?x303 A_1))) $x10884 (or $x54 (<= S_1 (+ L_4 ?x477 A_3 ?x270 C ?x303 A_1))) (or $x54 (<= S_2 (+ L_4 ?x477 A_3 ?x270 ?x570 ?x303 A_1))) (or $x54 $x7222) (<= (+ (* (- 3.0) C) (* (- 1.0) S_0) S_2) 0.0) $x10741 $x10644 (<= (+ (* (- 1.0) A_1) L_0 ?x262 S_2) 0.0) $x10479 (or $x64 (<= (+ L_2 ?x485 S_2) (- 5.0))) (or (<= (+ A_1 ?x565 (* (- 1.0) S_2)) 0.0) $x7222) $x7873 $x573 $x37 (<= (+ L_1 (* (- 1.0) A_1) S_1) 0.0) (<= (+ S_0 (* (- 1.0) A_0) L_0) 0.0) (<= (+ (* (- 2.0) C) (* (- 1.0) S_0) S_1) 0.0) (<= (+ ?x262 A_3 ?x485) 0.0) (<= (+ (* (- 2.0) C) (* (- 1.0) S_1) S_2) 0.0) (<= (+ (* (- 2.0) C) (* (- 1.0) A_0) L_0 S_2) 0.0) $x7923))))))))))))))))))))))))))))))))))))))))))))
(check-sat)
